100
32
22
11
30
19
31
31
11
7
30
12
14
15
16
12
30
15
26
17
10
12
4
20
16
27
19
26
21
28
21
12
1
18
31
11
4
14
17
24
2
1
28
17
18
20
24
1
25
28
20
5
20
11
27
9
1
2
2
3
4
30
31
20
5
2
6
12
29
25
20
1
5
20
8
17
25
29
14
7
30
3
17
32
32
26
31
23
23
4
5
7
19
18
19
1
4
4
10
4
8
17